(declare-fun temp70_1 () (_ BitVec 64))
(declare-fun var135910 () (_ BitVec 64))
(declare-fun temp70_2 () (_ BitVec 64))
(declare-fun var1314467 () (_ BitVec 64))
(declare-fun temp70_3 () (_ BitVec 64))
(declare-fun ARGNAME_keepdim_NAMEEND () (_ BitVec 64))
(declare-fun temp70_5 () (_ BitVec 64))
(declare-fun temp70_4 () (_ BitVec 64))
(declare-fun temp70_6 () (_ BitVec 64))
(declare-fun var4991089 () (_ BitVec 64))
(assert (= temp70_1 #x0000000000000001))
(assert (= var135910 temp70_1))
(assert (= temp70_2 #x0000000000000005))
(assert (= var1314467 temp70_2))
(assert (= temp70_3 #x0000000000000001))
(assert (= ARGNAME_keepdim_NAMEEND temp70_3))
(assert (= temp70_5 #x0000000000000001))
(assert (= temp70_4 temp70_5))
(assert (= temp70_6 #x0000000000000000))
(assert (= var4991089 temp70_6))
(model-add temp70_1 () (_ BitVec 64) #x0000000000000001)
(model-add var135910 () (_ BitVec 64) #x0000000000000001)
(model-add temp70_2 () (_ BitVec 64) #x0000000000000005)
(model-add var1314467 () (_ BitVec 64) #x0000000000000005)
(model-add temp70_3 () (_ BitVec 64) #x0000000000000001)
(model-add ARGNAME_keepdim_NAMEEND () (_ BitVec 64) #x0000000000000001)


